p cnf 490 1428
c inputs: 1 2 3 4 5 6 7 8 9 10 11 12 13 14
c variables for gates: 15 ... 476
c outputs: 477 478 479 480 481 482 483 484 485 486 487 488 489 490
c random input: -1 2 3 -4 5 -6 -7 -8 -9 10 -11 -12 -13 14
15 -1 -8 0
-15 1 0
-15 8 0
16 -2 -8 0
-16 2 0
-16 8 0
17 -3 -8 0
-17 3 0
-17 8 0
18 -4 -8 0
-18 4 0
-18 8 0
19 -5 -8 0
-19 5 0
-19 8 0
20 -6 -8 0
-20 6 0
-20 8 0
21 -7 -8 0
-21 7 0
-21 8 0
22 -1 -9 0
-22 1 0
-22 9 0
23 -2 -9 0
-23 2 0
-23 9 0
24 -3 -9 0
-24 3 0
-24 9 0
25 -4 -9 0
-25 4 0
-25 9 0
26 -5 -9 0
-26 5 0
-26 9 0
27 -6 -9 0
-27 6 0
-27 9 0
28 -7 -9 0
-28 7 0
-28 9 0
29 -1 -10 0
-29 1 0
-29 10 0
30 -2 -10 0
-30 2 0
-30 10 0
31 -3 -10 0
-31 3 0
-31 10 0
32 -4 -10 0
-32 4 0
-32 10 0
33 -5 -10 0
-33 5 0
-33 10 0
34 -6 -10 0
-34 6 0
-34 10 0
35 -7 -10 0
-35 7 0
-35 10 0
36 -1 -11 0
-36 1 0
-36 11 0
37 -2 -11 0
-37 2 0
-37 11 0
38 -3 -11 0
-38 3 0
-38 11 0
39 -4 -11 0
-39 4 0
-39 11 0
40 -5 -11 0
-40 5 0
-40 11 0
41 -6 -11 0
-41 6 0
-41 11 0
42 -7 -11 0
-42 7 0
-42 11 0
43 -1 -12 0
-43 1 0
-43 12 0
44 -2 -12 0
-44 2 0
-44 12 0
45 -3 -12 0
-45 3 0
-45 12 0
46 -4 -12 0
-46 4 0
-46 12 0
47 -5 -12 0
-47 5 0
-47 12 0
48 -6 -12 0
-48 6 0
-48 12 0
49 -7 -12 0
-49 7 0
-49 12 0
50 -1 -13 0
-50 1 0
-50 13 0
51 -2 -13 0
-51 2 0
-51 13 0
52 -3 -13 0
-52 3 0
-52 13 0
53 -4 -13 0
-53 4 0
-53 13 0
54 -5 -13 0
-54 5 0
-54 13 0
55 -6 -13 0
-55 6 0
-55 13 0
56 -7 -13 0
-56 7 0
-56 13 0
57 -1 -14 0
-57 1 0
-57 14 0
58 -2 -14 0
-58 2 0
-58 14 0
59 -3 -14 0
-59 3 0
-59 14 0
60 -4 -14 0
-60 4 0
-60 14 0
61 -5 -14 0
-61 5 0
-61 14 0
62 -6 -14 0
-62 6 0
-62 14 0
63 -7 -14 0
-63 7 0
-63 14 0
64 -51 -57 0
-64 51 0
-64 57 0
65 -57 51 0
-65 57 0
-65 -51 0
66 -51 57 0
-66 51 0
-66 -57 0
67 65 66 0
-67 -65 0
-67 -66 0
68 -58 -64 0
-68 58 0
-68 64 0
69 58 -64 0
-69 -58 0
-69 64 0
70 -58 64 0
-70 58 0
-70 -64 0
71 69 70 0
-71 -69 0
-71 -70 0
72 -37 -43 0
-72 37 0
-72 43 0
73 -43 37 0
-73 43 0
-73 -37 0
74 -37 43 0
-74 37 0
-74 -43 0
75 73 74 0
-75 -73 0
-75 -74 0
76 -50 -72 0
-76 50 0
-76 72 0
77 -44 -72 0
-77 44 0
-77 72 0
78 -44 -50 0
-78 44 0
-78 50 0
79 78 77 0
-79 -78 0
-79 -77 0
80 76 -79 0
-80 -76 0
-80 79 0
81 -50 44 0
-81 50 0
-81 -44 0
82 -44 50 0
-82 44 0
-82 -50 0
83 81 82 0
-83 -81 0
-83 -82 0
84 -72 -83 0
-84 72 0
-84 83 0
85 72 83 0
-85 -72 0
-85 -83 0
86 85 84 0
-86 -85 0
-86 -84 0
87 -38 86 0
-87 38 0
-87 -86 0
88 38 86 0
-88 -38 0
-88 -86 0
89 -38 -86 0
-89 38 0
-89 86 0
90 88 89 0
-90 -88 0
-90 -89 0
91 80 -87 0
-91 -80 0
-91 87 0
92 67 -87 0
-92 -67 0
-92 87 0
93 67 80 0
-93 -67 0
-93 -80 0
94 93 92 0
-94 -93 0
-94 -92 0
95 -94 91 0
-95 94 0
-95 -91 0
96 -67 80 0
-96 67 0
-96 -80 0
97 67 -80 0
-97 -67 0
-97 80 0
98 97 96 0
-98 -97 0
-98 -96 0
99 -98 -87 0
-99 98 0
-99 87 0
100 98 87 0
-100 -98 0
-100 -87 0
101 99 100 0
-101 -99 0
-101 -100 0
102 -45 101 0
-102 45 0
-102 -101 0
103 -39 101 0
-103 39 0
-103 -101 0
104 -39 -45 0
-104 39 0
-104 45 0
105 104 103 0
-105 -104 0
-105 -103 0
106 102 -105 0
-106 -102 0
-106 105 0
107 -45 39 0
-107 45 0
-107 -39 0
108 -39 45 0
-108 39 0
-108 -45 0
109 107 108 0
-109 -107 0
-109 -108 0
110 -109 101 0
-110 109 0
-110 -101 0
111 109 -101 0
-111 -109 0
-111 101 0
112 110 111 0
-112 -110 0
-112 -111 0
113 95 106 0
-113 -95 0
-113 -106 0
114 71 106 0
-114 -71 0
-114 -106 0
115 71 95 0
-115 -71 0
-115 -95 0
116 114 115 0
-116 -114 0
-116 -115 0
117 -116 113 0
-117 116 0
-117 -113 0
118 -71 95 0
-118 71 0
-118 -95 0
119 71 -95 0
-119 -71 0
-119 95 0
120 119 118 0
-120 -119 0
-120 -118 0
121 -120 106 0
-121 120 0
-121 -106 0
122 120 -106 0
-122 -120 0
-122 106 0
123 122 121 0
-123 -122 0
-123 -121 0
124 -52 123 0
-124 52 0
-124 -123 0
125 -46 123 0
-125 46 0
-125 -123 0
126 -46 -52 0
-126 46 0
-126 52 0
127 126 125 0
-127 -126 0
-127 -125 0
128 124 -127 0
-128 -124 0
-128 127 0
129 -52 46 0
-129 52 0
-129 -46 0
130 -46 52 0
-130 46 0
-130 -52 0
131 129 130 0
-131 -129 0
-131 -130 0
132 -131 123 0
-132 131 0
-132 -123 0
133 131 -123 0
-133 -131 0
-133 123 0
134 133 132 0
-134 -133 0
-134 -132 0
135 117 128 0
-135 -117 0
-135 -128 0
136 -68 128 0
-136 68 0
-136 -128 0
137 -68 117 0
-137 68 0
-137 -117 0
138 137 136 0
-138 -137 0
-138 -136 0
139 -138 135 0
-139 138 0
-139 -135 0
140 68 117 0
-140 -68 0
-140 -117 0
141 -68 -117 0
-141 68 0
-141 117 0
142 140 141 0
-142 -140 0
-142 -141 0
143 128 -142 0
-143 -128 0
-143 142 0
144 -128 142 0
-144 128 0
-144 -142 0
145 144 143 0
-145 -144 0
-145 -143 0
146 -59 145 0
-146 59 0
-146 -145 0
147 -53 145 0
-147 53 0
-147 -145 0
148 -53 -59 0
-148 53 0
-148 59 0
149 148 147 0
-149 -148 0
-149 -147 0
150 146 -149 0
-150 -146 0
-150 149 0
151 -59 53 0
-151 59 0
-151 -53 0
152 -53 59 0
-152 53 0
-152 -59 0
153 151 152 0
-153 -151 0
-153 -152 0
154 -153 145 0
-154 153 0
-154 -145 0
155 153 -145 0
-155 -153 0
-155 145 0
156 155 154 0
-156 -155 0
-156 -154 0
157 139 150 0
-157 -139 0
-157 -150 0
158 -60 150 0
-158 60 0
-158 -150 0
159 -60 139 0
-159 60 0
-159 -139 0
160 159 158 0
-160 -159 0
-160 -158 0
161 157 -160 0
-161 -157 0
-161 160 0
162 60 139 0
-162 -60 0
-162 -139 0
163 -60 -139 0
-163 60 0
-163 139 0
164 162 163 0
-164 -162 0
-164 -163 0
165 150 -164 0
-165 -150 0
-165 164 0
166 -150 164 0
-166 150 0
-166 -164 0
167 165 166 0
-167 -165 0
-167 -166 0
168 -30 -36 0
-168 30 0
-168 36 0
169 -36 30 0
-169 36 0
-169 -30 0
170 -30 36 0
-170 30 0
-170 -36 0
171 169 170 0
-171 -169 0
-171 -170 0
172 -168 75 0
-172 168 0
-172 -75 0
173 -31 -168 0
-173 31 0
-173 168 0
174 -31 75 0
-174 31 0
-174 -75 0
175 173 174 0
-175 -173 0
-175 -174 0
176 172 -175 0
-176 -172 0
-176 175 0
177 31 75 0
-177 -31 0
-177 -75 0
178 -31 -75 0
-178 31 0
-178 75 0
179 178 177 0
-179 -178 0
-179 -177 0
180 -168 -179 0
-180 168 0
-180 179 0
181 168 179 0
-181 -168 0
-181 -179 0
182 180 181 0
-182 -180 0
-182 -181 0
183 176 90 0
-183 -176 0
-183 -90 0
184 -32 176 0
-184 32 0
-184 -176 0
185 -32 90 0
-185 32 0
-185 -90 0
186 184 185 0
-186 -184 0
-186 -185 0
187 183 -186 0
-187 -183 0
-187 186 0
188 32 90 0
-188 -32 0
-188 -90 0
189 -32 -90 0
-189 32 0
-189 90 0
190 189 188 0
-190 -189 0
-190 -188 0
191 176 -190 0
-191 -176 0
-191 190 0
192 -176 190 0
-192 176 0
-192 -190 0
193 191 192 0
-193 -191 0
-193 -192 0
194 112 187 0
-194 -112 0
-194 -187 0
195 -33 187 0
-195 33 0
-195 -187 0
196 -33 112 0
-196 33 0
-196 -112 0
197 196 195 0
-197 -196 0
-197 -195 0
198 194 -197 0
-198 -194 0
-198 197 0
199 33 112 0
-199 -33 0
-199 -112 0
200 -33 -112 0
-200 33 0
-200 112 0
201 200 199 0
-201 -200 0
-201 -199 0
202 187 -201 0
-202 -187 0
-202 201 0
203 -187 201 0
-203 187 0
-203 -201 0
204 203 202 0
-204 -203 0
-204 -202 0
205 198 134 0
-205 -198 0
-205 -134 0
206 -40 198 0
-206 40 0
-206 -198 0
207 -40 134 0
-207 40 0
-207 -134 0
208 206 207 0
-208 -206 0
-208 -207 0
209 -208 205 0
-209 208 0
-209 -205 0
210 40 134 0
-210 -40 0
-210 -134 0
211 -40 -134 0
-211 40 0
-211 134 0
212 210 211 0
-212 -210 0
-212 -211 0
213 -212 198 0
-213 212 0
-213 -198 0
214 212 -198 0
-214 -212 0
-214 198 0
215 213 214 0
-215 -213 0
-215 -214 0
216 156 209 0
-216 -156 0
-216 -209 0
217 -47 209 0
-217 47 0
-217 -209 0
218 -47 156 0
-218 47 0
-218 -156 0
219 218 217 0
-219 -218 0
-219 -217 0
220 216 -219 0
-220 -216 0
-220 219 0
221 47 156 0
-221 -47 0
-221 -156 0
222 -47 -156 0
-222 47 0
-222 156 0
223 222 221 0
-223 -222 0
-223 -221 0
224 -223 209 0
-224 223 0
-224 -209 0
225 223 -209 0
-225 -223 0
-225 209 0
226 224 225 0
-226 -224 0
-226 -225 0
227 220 167 0
-227 -220 0
-227 -167 0
228 -54 220 0
-228 54 0
-228 -220 0
229 -54 167 0
-229 54 0
-229 -167 0
230 228 229 0
-230 -228 0
-230 -229 0
231 227 -230 0
-231 -227 0
-231 230 0
232 54 167 0
-232 -54 0
-232 -167 0
233 -54 -167 0
-233 54 0
-233 167 0
234 233 232 0
-234 -233 0
-234 -232 0
235 220 -234 0
-235 -220 0
-235 234 0
236 -220 234 0
-236 220 0
-236 -234 0
237 236 235 0
-237 -236 0
-237 -235 0
238 161 231 0
-238 -161 0
-238 -231 0
239 -61 231 0
-239 61 0
-239 -231 0
240 -61 161 0
-240 61 0
-240 -161 0
241 240 239 0
-241 -240 0
-241 -239 0
242 -241 238 0
-242 241 0
-242 -238 0
243 61 161 0
-243 -61 0
-243 -161 0
244 -61 -161 0
-244 61 0
-244 161 0
245 244 243 0
-245 -244 0
-245 -243 0
246 231 -245 0
-246 -231 0
-246 245 0
247 -231 245 0
-247 231 0
-247 -245 0
248 246 247 0
-248 -246 0
-248 -247 0
249 -23 -29 0
-249 23 0
-249 29 0
250 -29 23 0
-250 29 0
-250 -23 0
251 -23 29 0
-251 23 0
-251 -29 0
252 250 251 0
-252 -250 0
-252 -251 0
253 -249 171 0
-253 249 0
-253 -171 0
254 -24 -249 0
-254 24 0
-254 249 0
255 -24 171 0
-255 24 0
-255 -171 0
256 254 255 0
-256 -254 0
-256 -255 0
257 253 -256 0
-257 -253 0
-257 256 0
258 24 171 0
-258 -24 0
-258 -171 0
259 -24 -171 0
-259 24 0
-259 171 0
260 259 258 0
-260 -259 0
-260 -258 0
261 -249 -260 0
-261 249 0
-261 260 0
262 249 260 0
-262 -249 0
-262 -260 0
263 261 262 0
-263 -261 0
-263 -262 0
264 257 182 0
-264 -257 0
-264 -182 0
265 -25 257 0
-265 25 0
-265 -257 0
266 -25 182 0
-266 25 0
-266 -182 0
267 265 266 0
-267 -265 0
-267 -266 0
268 264 -267 0
-268 -264 0
-268 267 0
269 25 182 0
-269 -25 0
-269 -182 0
270 -25 -182 0
-270 25 0
-270 182 0
271 269 270 0
-271 -269 0
-271 -270 0
272 257 -271 0
-272 -257 0
-272 271 0
273 -257 271 0
-273 257 0
-273 -271 0
274 273 272 0
-274 -273 0
-274 -272 0
275 268 193 0
-275 -268 0
-275 -193 0
276 -26 268 0
-276 26 0
-276 -268 0
277 -26 193 0
-277 26 0
-277 -193 0
278 276 277 0
-278 -276 0
-278 -277 0
279 275 -278 0
-279 -275 0
-279 278 0
280 26 193 0
-280 -26 0
-280 -193 0
281 -26 -193 0
-281 26 0
-281 193 0
282 281 280 0
-282 -281 0
-282 -280 0
283 268 -282 0
-283 -268 0
-283 282 0
284 -268 282 0
-284 268 0
-284 -282 0
285 283 284 0
-285 -283 0
-285 -284 0
286 204 279 0
-286 -204 0
-286 -279 0
287 -27 279 0
-287 27 0
-287 -279 0
288 -27 204 0
-288 27 0
-288 -204 0
289 288 287 0
-289 -288 0
-289 -287 0
290 -289 286 0
-290 289 0
-290 -286 0
291 27 204 0
-291 -27 0
-291 -204 0
292 -27 -204 0
-292 27 0
-292 204 0
293 292 291 0
-293 -292 0
-293 -291 0
294 -293 279 0
-294 293 0
-294 -279 0
295 293 -279 0
-295 -293 0
-295 279 0
296 295 294 0
-296 -295 0
-296 -294 0
297 215 290 0
-297 -215 0
-297 -290 0
298 -34 290 0
-298 34 0
-298 -290 0
299 -34 215 0
-299 34 0
-299 -215 0
300 299 298 0
-300 -299 0
-300 -298 0
301 -300 297 0
-301 300 0
-301 -297 0
302 34 215 0
-302 -34 0
-302 -215 0
303 -34 -215 0
-303 34 0
-303 215 0
304 303 302 0
-304 -303 0
-304 -302 0
305 -304 290 0
-305 304 0
-305 -290 0
306 304 -290 0
-306 -304 0
-306 290 0
307 306 305 0
-307 -306 0
-307 -305 0
308 301 226 0
-308 -301 0
-308 -226 0
309 -41 301 0
-309 41 0
-309 -301 0
310 -41 226 0
-310 41 0
-310 -226 0
311 309 310 0
-311 -309 0
-311 -310 0
312 -311 308 0
-312 311 0
-312 -308 0
313 41 226 0
-313 -41 0
-313 -226 0
314 -41 -226 0
-314 41 0
-314 226 0
315 314 313 0
-315 -314 0
-315 -313 0
316 -315 301 0
-316 315 0
-316 -301 0
317 315 -301 0
-317 -315 0
-317 301 0
318 317 316 0
-318 -317 0
-318 -316 0
319 237 312 0
-319 -237 0
-319 -312 0
320 -48 312 0
-320 48 0
-320 -312 0
321 -48 237 0
-321 48 0
-321 -237 0
322 321 320 0
-322 -321 0
-322 -320 0
323 319 -322 0
-323 -319 0
-323 322 0
324 48 237 0
-324 -48 0
-324 -237 0
325 -48 -237 0
-325 48 0
-325 237 0
326 324 325 0
-326 -324 0
-326 -325 0
327 -326 312 0
-327 326 0
-327 -312 0
328 326 -312 0
-328 -326 0
-328 312 0
329 328 327 0
-329 -328 0
-329 -327 0
330 248 323 0
-330 -248 0
-330 -323 0
331 -55 323 0
-331 55 0
-331 -323 0
332 -55 248 0
-332 55 0
-332 -248 0
333 332 331 0
-333 -332 0
-333 -331 0
334 330 -333 0
-334 -330 0
-334 333 0
335 55 248 0
-335 -55 0
-335 -248 0
336 -55 -248 0
-336 55 0
-336 248 0
337 336 335 0
-337 -336 0
-337 -335 0
338 -337 323 0
-338 337 0
-338 -323 0
339 337 -323 0
-339 -337 0
-339 323 0
340 338 339 0
-340 -338 0
-340 -339 0
341 242 334 0
-341 -242 0
-341 -334 0
342 -62 334 0
-342 62 0
-342 -334 0
343 -62 242 0
-343 62 0
-343 -242 0
344 343 342 0
-344 -343 0
-344 -342 0
345 -344 341 0
-345 344 0
-345 -341 0
346 62 242 0
-346 -62 0
-346 -242 0
347 -62 -242 0
-347 62 0
-347 242 0
348 347 346 0
-348 -347 0
-348 -346 0
349 334 -348 0
-349 -334 0
-349 348 0
350 -334 348 0
-350 334 0
-350 -348 0
351 350 349 0
-351 -350 0
-351 -349 0
352 -16 22 0
-352 16 0
-352 -22 0
353 -22 16 0
-353 22 0
-353 -16 0
354 353 352 0
-354 -353 0
-354 -352 0
355 -16 -22 0
-355 16 0
-355 22 0
356 -17 -252 0
-356 17 0
-356 252 0
357 17 252 0
-357 -17 0
-357 -252 0
358 356 357 0
-358 -356 0
-358 -357 0
359 -355 -358 0
-359 355 0
-359 358 0
360 355 358 0
-360 -355 0
-360 -358 0
361 359 360 0
-361 -359 0
-361 -360 0
362 -17 -355 0
-362 17 0
-362 355 0
363 -355 252 0
-363 355 0
-363 -252 0
364 -17 252 0
-364 17 0
-364 -252 0
365 364 363 0
-365 -364 0
-365 -363 0
366 362 -365 0
-366 -362 0
-366 365 0
367 -18 -263 0
-367 18 0
-367 263 0
368 18 263 0
-368 -18 0
-368 -263 0
369 368 367 0
-369 -368 0
-369 -367 0
370 366 -369 0
-370 -366 0
-370 369 0
371 -366 369 0
-371 366 0
-371 -369 0
372 371 370 0
-372 -371 0
-372 -370 0
373 -18 366 0
-373 18 0
-373 -366 0
374 366 263 0
-374 -366 0
-374 -263 0
375 -18 263 0
-375 18 0
-375 -263 0
376 374 375 0
-376 -374 0
-376 -375 0
377 373 -376 0
-377 -373 0
-377 376 0
378 -19 -274 0
-378 19 0
-378 274 0
379 19 274 0
-379 -19 0
-379 -274 0
380 378 379 0
-380 -378 0
-380 -379 0
381 377 -380 0
-381 -377 0
-381 380 0
382 -377 380 0
-382 377 0
-382 -380 0
383 382 381 0
-383 -382 0
-383 -381 0
384 -19 377 0
-384 19 0
-384 -377 0
385 377 274 0
-385 -377 0
-385 -274 0
386 -19 274 0
-386 19 0
-386 -274 0
387 385 386 0
-387 -385 0
-387 -386 0
388 384 -387 0
-388 -384 0
-388 387 0
389 -20 -285 0
-389 20 0
-389 285 0
390 20 285 0
-390 -20 0
-390 -285 0
391 389 390 0
-391 -389 0
-391 -390 0
392 -391 388 0
-392 391 0
-392 -388 0
393 391 -388 0
-393 -391 0
-393 388 0
394 393 392 0
-394 -393 0
-394 -392 0
395 -20 388 0
-395 20 0
-395 -388 0
396 388 285 0
-396 -388 0
-396 -285 0
397 -20 285 0
-397 20 0
-397 -285 0
398 397 396 0
-398 -397 0
-398 -396 0
399 -398 395 0
-399 398 0
-399 -395 0
400 -21 -296 0
-400 21 0
-400 296 0
401 21 296 0
-401 -21 0
-401 -296 0
402 400 401 0
-402 -400 0
-402 -401 0
403 -402 399 0
-403 402 0
-403 -399 0
404 402 -399 0
-404 -402 0
-404 399 0
405 404 403 0
-405 -404 0
-405 -403 0
406 -21 399 0
-406 21 0
-406 -399 0
407 296 399 0
-407 -296 0
-407 -399 0
408 -21 296 0
-408 21 0
-408 -296 0
409 408 407 0
-409 -408 0
-409 -407 0
410 -409 406 0
-410 409 0
-410 -406 0
411 -28 -307 0
-411 28 0
-411 307 0
412 28 307 0
-412 -28 0
-412 -307 0
413 411 412 0
-413 -411 0
-413 -412 0
414 -413 410 0
-414 413 0
-414 -410 0
415 413 -410 0
-415 -413 0
-415 410 0
416 415 414 0
-416 -415 0
-416 -414 0
417 -28 410 0
-417 28 0
-417 -410 0
418 410 307 0
-418 -410 0
-418 -307 0
419 -28 307 0
-419 28 0
-419 -307 0
420 418 419 0
-420 -418 0
-420 -419 0
421 -420 417 0
-421 420 0
-421 -417 0
422 -35 -318 0
-422 35 0
-422 318 0
423 35 318 0
-423 -35 0
-423 -318 0
424 422 423 0
-424 -422 0
-424 -423 0
425 -424 421 0
-425 424 0
-425 -421 0
426 424 -421 0
-426 -424 0
-426 421 0
427 425 426 0
-427 -425 0
-427 -426 0
428 -35 421 0
-428 35 0
-428 -421 0
429 421 318 0
-429 -421 0
-429 -318 0
430 -35 318 0
-430 35 0
-430 -318 0
431 430 429 0
-431 -430 0
-431 -429 0
432 428 -431 0
-432 -428 0
-432 431 0
433 -42 -329 0
-433 42 0
-433 329 0
434 42 329 0
-434 -42 0
-434 -329 0
435 433 434 0
-435 -433 0
-435 -434 0
436 432 -435 0
-436 -432 0
-436 435 0
437 -432 435 0
-437 432 0
-437 -435 0
438 437 436 0
-438 -437 0
-438 -436 0
439 -42 432 0
-439 42 0
-439 -432 0
440 432 329 0
-440 -432 0
-440 -329 0
441 -42 329 0
-441 42 0
-441 -329 0
442 440 441 0
-442 -440 0
-442 -441 0
443 439 -442 0
-443 -439 0
-443 442 0
444 -49 -340 0
-444 49 0
-444 340 0
445 49 340 0
-445 -49 0
-445 -340 0
446 444 445 0
-446 -444 0
-446 -445 0
447 -446 443 0
-447 446 0
-447 -443 0
448 446 -443 0
-448 -446 0
-448 443 0
449 448 447 0
-449 -448 0
-449 -447 0
450 -49 443 0
-450 49 0
-450 -443 0
451 443 340 0
-451 -443 0
-451 -340 0
452 -49 340 0
-452 49 0
-452 -340 0
453 451 452 0
-453 -451 0
-453 -452 0
454 450 -453 0
-454 -450 0
-454 453 0
455 -56 -351 0
-455 56 0
-455 351 0
456 56 351 0
-456 -56 0
-456 -351 0
457 456 455 0
-457 -456 0
-457 -455 0
458 -457 454 0
-458 457 0
-458 -454 0
459 457 -454 0
-459 -457 0
-459 454 0
460 459 458 0
-460 -459 0
-460 -458 0
461 -56 454 0
-461 56 0
-461 -454 0
462 351 454 0
-462 -351 0
-462 -454 0
463 -56 351 0
-463 56 0
-463 -351 0
464 462 463 0
-464 -462 0
-464 -463 0
465 -464 461 0
-465 464 0
-465 -461 0
466 -63 -345 0
-466 63 0
-466 345 0
467 63 345 0
-467 -63 0
-467 -345 0
468 466 467 0
-468 -466 0
-468 -467 0
469 -468 465 0
-469 468 0
-469 -465 0
470 468 -465 0
-470 -468 0
-470 465 0
471 470 469 0
-471 -470 0
-471 -469 0
472 -63 465 0
-472 63 0
-472 -465 0
473 345 465 0
-473 -345 0
-473 -465 0
474 -63 345 0
-474 63 0
-474 -345 0
475 474 473 0
-475 -474 0
-475 -473 0
476 472 -475 0
-476 -472 0
-476 475 0
-477 15 0
477 -15 0
-478 -354 0
478 354 0
-479 -361 0
479 361 0
-480 -372 0
480 372 0
-481 -383 0
481 383 0
-482 -394 0
482 394 0
-483 -405 0
483 405 0
-484 -416 0
484 416 0
-485 -427 0
485 427 0
-486 -438 0
486 438 0
-487 -449 0
487 449 0
-488 -460 0
488 460 0
-489 -471 0
489 471 0
-490 -476 0
490 476 0
-477 0
-478 0
-479 0
480 0
481 0
-482 0
483 0
484 0
485 0
-486 0
487 0
-488 0
-489 0
-490 0
